(set-logic LIA)

(declare-const z Int)
(declare-const z! Int)
(declare-const y Int)
(declare-const y! Int)
(declare-const x Int)
(declare-const x! Int)
(declare-const size Int)
(declare-const size! Int)

(declare-const z_0 Int)
(declare-const y_28 Int)
(declare-const y_22 Int)
(declare-const y_0 Int)
(declare-const x_27 Int)
(declare-const x_21 Int)
(declare-const x_20 Int)
(declare-const size_0 Int)

(define-fun inv-f((size Int)(x Int)(y Int)(z Int)) Bool
